c IN1002 Introduction to Algorithms!
c top secret ID string 98a98d23c32
c 12 variables and 50 clauses
p cnf 12 50
c each line is a clause, 0 marks the end
5 -11 -4 0
9 -10 -8 0
-8 -5 7 0
-2 -10 4 0
1 -2 0
-5 12 -10 0
10 -9 -2 0
12 -4 0
12 4 0
9 -2 9 0
8 -10 11 0
-9 11 -10 0
-3 -8 -3 0
-9 4 1 0
7 -8 -11 0
-4 1 -12 0
-2 -8 0
9 -1 4 0
-6 -3 0
9 -2 9 0
5 -7 -12 0
5 -4 -12 0
8 7 -8 0
-6 10 8 0
8 6 -11 0
9 -10 2 0
9 2 -11 0
-10 3 0
9 7 -10 0
-5 5 1 0
-8 -3 8 0
-6 -8 -8 0
-5 -11 -12 0
1 -5 -12 0
-3 -10 6 0
11 10 -10 0
10 -7 0
-11 12 10 0
10 8 -10 0
-7 5 0
-1 12 0
7 -9 6 0
-11 -8 7 0
5 -1 7 0
-11 4 2 0
3 4 0
5 3 -11 0
-12 5 -10 0
10 2 11 0
12 9 0
c Good luck!
